NAME : X_38_seed_123_id_16
TYPE : CVRP
DIMENSION : 275
EDGE_WEIGHT_TYPE : EUC_2D
CAPACITY : 10
NODE_COORD_SECTION
1	91	704
2	875	417
3	807	980
4	274	679
5	261	704
6	328	711
7	420	790
8	265	638
9	916	431
10	779	466
11	869	367
12	837	942
13	190	672
14	817	926
15	873	621
16	834	399
17	880	342
18	798	450
19	972	396
20	864	373
21	38	791
22	821	923
23	900	409
24	938	975
25	802	423
26	232	552
27	911	410
28	889	356
29	842	535
30	869	412
31	730	357
32	256	654
33	891	645
34	840	896
35	891	333
36	856	977
37	281	673
38	777	487
39	199	726
40	767	993
41	853	971
42	783	382
43	823	586
44	320	552
45	347	739
46	907	338
47	408	726
48	790	922
49	860	417
50	240	676
51	778	807
52	803	974
53	332	758
54	299	698
55	330	703
56	243	679
57	844	466
58	236	653
59	832	399
60	280	661
61	764	471
62	219	771
63	261	668
64	283	741
65	794	867
66	333	680
67	909	369
68	859	939
69	923	606
70	291	726
71	170	724
72	202	655
73	905	336
74	836	970
75	829	479
76	883	419
77	823	1000
78	268	659
79	965	555
80	765	931
81	880	416
82	816	998
83	750	927
84	360	737
85	963	394
86	277	675
87	819	341
88	740	957
89	183	726
90	779	970
91	895	421
92	895	416
93	275	626
94	918	468
95	251	679
96	884	899
97	842	472
98	801	670
99	251	711
100	804	966
101	811	760
102	865	419
103	728	984
104	828	978
105	270	657
106	293	719
107	282	663
108	303	638
109	884	423
110	214	676
111	997	400
112	881	283
113	763	379
114	863	511
115	786	939
116	867	418
117	935	397
118	835	983
119	861	446
120	845	401
121	262	646
122	775	935
123	915	410
124	404	816
125	896	476
126	906	463
127	344	768
128	881	325
129	851	507
130	239	668
131	766	932
132	272	669
133	680	980
134	736	388
135	871	394
136	789	962
137	784	965
138	245	618
139	217	688
140	895	332
141	814	920
142	923	417
143	815	896
144	798	857
145	393	708
146	313	701
147	869	417
148	316	629
149	814	406
150	397	680
151	896	440
152	250	699
153	312	695
154	885	934
155	359	570
156	870	356
157	916	390
158	886	404
159	999	463
160	771	938
161	284	723
162	893	379
163	265	712
164	390	577
165	772	970
166	880	671
167	977	588
168	786	858
169	311	706
170	956	422
171	888	403
172	265	685
173	216	647
174	919	382
175	957	515
176	250	855
177	166	720
178	929	479
179	696	1000
180	243	709
181	293	675
182	448	678
183	808	980
184	334	589
185	288	599
186	837	990
187	941	440
188	892	923
189	847	492
190	274	682
191	888	424
192	282	659
193	339	709
194	869	434
195	191	669
196	760	930
197	874	385
198	826	402
199	733	940
200	252	628
201	993	300
202	204	670
203	257	682
204	814	980
205	387	772
206	932	421
207	846	923
208	847	430
209	317	677
210	778	995
211	762	989
212	836	945
213	906	347
214	406	663
215	819	386
216	385	705
217	291	663
218	881	421
219	818	484
220	718	932
221	880	421
222	909	404
223	255	692
224	783	948
225	945	249
226	870	381
227	877	373
228	896	408
229	822	420
230	217	537
231	920	336
232	236	666
233	292	663
234	951	287
235	862	987
236	856	449
237	978	378
238	215	651
239	307	873
240	885	921
241	884	362
242	826	301
243	731	461
244	295	672
245	895	448
246	961	431
247	801	455
248	214	732
249	917	980
250	914	356
251	586	918
252	259	675
253	866	358
254	822	970
255	961	357
256	928	507
257	285	697
258	182	498
259	211	693
260	828	481
261	274	736
262	876	417
263	312	624
264	814	400
265	238	710
266	299	694
267	875	976
268	810	893
269	738	960
270	291	933
271	809	951
272	256	672
273	314	661
274	707	888
275	171	757
DEMAND_SECTION
1	0
2	1
3	1
4	1
5	1
6	1
7	1
8	1
9	1
10	1
11	1
12	1
13	1
14	1
15	1
16	1
17	1
18	1
19	1
20	1
21	1
22	1
23	1
24	1
25	1
26	1
27	1
28	1
29	1
30	1
31	1
32	1
33	1
34	1
35	1
36	1
37	1
38	1
39	1
40	1
41	1
42	1
43	1
44	1
45	1
46	1
47	1
48	1
49	1
50	1
51	1
52	1
53	1
54	1
55	1
56	1
57	1
58	1
59	1
60	1
61	1
62	1
63	1
64	1
65	1
66	1
67	1
68	1
69	1
70	1
71	1
72	1
73	1
74	1
75	1
76	1
77	1
78	1
79	1
80	1
81	1
82	1
83	1
84	1
85	1
86	1
87	1
88	1
89	1
90	1
91	1
92	1
93	1
94	1
95	1
96	1
97	1
98	1
99	1
100	1
101	1
102	1
103	1
104	1
105	1
106	1
107	1
108	1
109	1
110	1
111	1
112	1
113	1
114	1
115	1
116	1
117	1
118	1
119	1
120	1
121	1
122	1
123	1
124	1
125	1
126	1
127	1
128	1
129	1
130	1
131	1
132	1
133	1
134	1
135	1
136	1
137	1
138	1
139	1
140	1
141	1
142	1
143	1
144	1
145	1
146	1
147	1
148	1
149	1
150	1
151	1
152	1
153	1
154	1
155	1
156	1
157	1
158	1
159	1
160	1
161	1
162	1
163	1
164	1
165	1
166	1
167	1
168	1
169	1
170	1
171	1
172	1
173	1
174	1
175	1
176	1
177	1
178	1
179	1
180	1
181	1
182	1
183	1
184	1
185	1
186	1
187	1
188	1
189	1
190	1
191	1
192	1
193	1
194	1
195	1
196	1
197	1
198	1
199	1
200	1
201	1
202	1
203	1
204	1
205	1
206	1
207	1
208	1
209	1
210	1
211	1
212	1
213	1
214	1
215	1
216	1
217	1
218	1
219	1
220	1
221	1
222	1
223	1
224	1
225	1
226	1
227	1
228	1
229	1
230	1
231	1
232	1
233	1
234	1
235	1
236	1
237	1
238	1
239	1
240	1
241	1
242	1
243	1
244	1
245	1
246	1
247	1
248	1
249	1
250	1
251	1
252	1
253	1
254	1
255	1
256	1
257	1
258	1
259	1
260	1
261	1
262	1
263	1
264	1
265	1
266	1
267	1
268	1
269	1
270	1
271	1
272	1
273	1
274	1
275	1
DEPOT_SECTION
1
-1
EOF
